experiment/data/lkh-res/Vrp-Set-A-n32/Vrp-Set-A-n32-lkh/0.lkh1.vrp
NAME : 0
COMMENT : CVRP Instance
TYPE : CVRP
DIMENSION : 32
EDGE_WEIGHT_TYPE : EUC_2D
CAPACITY : 100
NODE_COORD_SECTION
1	8200	7600
2	9600	4400
3	5000	500
4	4900	800
5	1300	700
6	2900	8900
7	5800	3000
8	8400	3900
9	1400	2400
10	200	3900
11	300	8200
12	500	1000
13	9800	5200
14	8400	2500
15	6100	5900
16	100	6500
17	8800	5100
18	9100	200
19	1900	3200
20	9300	300
21	5000	9300
22	9800	1400
23	500	4200
24	4200	900
25	6100	6200
26	900	9700
27	8000	5500
28	5700	6900
29	2300	1500
30	2000	7000
31	8500	6000
32	9800	500
DEMAND_SECTION
1	0
2	19
3	21
4	6
5	19
6	7
7	12
8	16
9	6
10	16
11	8
12	14
13	21
14	16
15	3
16	22
17	18
18	19
19	1
20	24
21	8
22	12
23	4
24	8
25	24
26	24
27	2
28	20
29	15
30	2
31	14
32	9
DEPOT_SECTION
1
-1
EOF
